language ESSENCE' 1.0

letting n_courses be 198
letting n_periods be 26
letting prerequisite_RelationAsSet_Explicit_1 be
        [1, 2, 3, 3, 3, 5, 6, 7, 7, 9, 10, 11, 11, 11, 11, 11, 12, 12, 13, 15, 16, 16, 16, 19, 19, 19, 20, 21, 22, 22,
         23, 24, 24, 24, 24, 25, 27, 27, 28, 28, 28, 28, 29, 30, 31, 31, 32, 33, 34, 34, 35, 37, 38, 38, 39, 42, 43, 43,
         44, 44, 45, 45, 47, 47, 48, 50, 51, 52, 53, 53, 53, 54, 59, 59, 60, 60, 60, 61, 62, 66, 67, 67, 68, 69, 71, 73,
         78, 79, 81, 81, 82, 85, 86, 88, 91, 92, 92, 94, 94, 95, 96, 96, 99, 103, 105, 106, 107, 108, 109, 110, 112,
         112, 113, 114, 115, 115, 118, 121, 124, 124, 124, 126, 129, 129, 132, 132, 132, 134, 134, 137, 137, 137, 138,
         140, 140, 141;
             int(1..136)]
letting prerequisite_RelationAsSet_Explicit_2 be
        [75, 125, 67, 113, 133, 116, 128, 87, 137, 109, 80, 63, 65, 93, 118, 135, 98, 132, 74, 112, 76, 86, 101, 72, 79,
         96, 111, 106, 81, 105, 123, 83, 84, 97, 122, 119, 91, 103, 69, 89, 108, 126, 104, 140, 68, 115, 110, 100, 71,
         77, 130, 120, 94, 99, 124, 134, 82, 127, 66, 129, 88, 102, 73, 114, 64, 90, 107, 92, 70, 95, 136, 121, 138,
         139, 85, 117, 131, 141, 78, 190, 144, 161, 197, 158, 149, 198, 191, 178, 152, 168, 169, 142, 171, 183, 146,
         163, 182, 174, 176, 148, 166, 181, 177, 173, 180, 156, 185, 153, 154, 159, 164, 186, 151, 162, 170, 189, 175,
         187, 160, 192, 196, 155, 167, 184, 150, 157, 172, 145, 165, 179, 188, 193, 194, 143, 147, 195;
             int(1..136)]
letting course_load_Function1D be
        [5, 3, 3, 6, 5, 7, 4, 2, 8, 4, 5, 6, 5, 2, 5, 6, 7, 2, 7, 2, 2, 6, 6, 7, 2, 6, 3, 2, 7, 4, 6, 5, 6, 8, 7, 5, 2,
         3, 3, 6, 2, 4, 2, 4, 4, 7, 4, 4, 3, 2, 2, 3, 2, 3, 2, 4, 3, 8, 4, 3, 7, 7, 6, 5, 3, 2, 7, 6, 3, 4, 2, 8, 3, 7,
         6, 6, 2, 7, 4, 2, 3, 5, 3, 3, 7, 2, 2, 8, 4, 6, 5, 6, 4, 5, 6, 7, 5, 6, 2, 6, 2, 2, 2, 5, 6, 4, 6, 7, 2, 4, 5,
         5, 6, 6, 6, 8, 7, 7, 7, 2, 3, 6, 5, 5, 7, 2, 5, 5, 2, 7, 6, 4, 3, 7, 4, 6, 4, 3, 2, 4, 3, 5, 3, 4, 5, 4, 3, 3,
         7, 7, 8, 5, 4, 7, 4, 6, 4, 4, 4, 4, 3, 2, 5, 5, 2, 4, 7, 4, 4, 4, 5, 5, 8, 4, 7, 3, 6, 4, 7, 8, 3, 6, 5, 4, 5,
         8, 5, 5, 2, 7, 2, 3, 7, 3, 4, 2, 3, 5;
             int(1..198)]
letting load_per_period_ub be 42
letting load_per_period_lb be 10
letting courses_per_period_ub be 9
letting courses_per_period_lb be 4
letting fin1 be 136
letting fin2 be 198
letting fin3 be 8
